# Objective value = -4.7319048225740339e+01
x_Air2_Mtr4 1
x_Mtr4_Rps11a 0
x_Rps11a_Fun12 0
x_Mtr4_Rps11b 0
x_Rps11b_Fun12 1
x_Mtr4_Rps13 0
x_Rps13_Fun12 0
x_Mtr4_Rps14a 0
x_Rps14a_Fun12 0
x_Mtr4_Rps16a 0
x_Rps16a_Fun12 0
x_Mtr4_Rps16b 0
x_Rps16b_Fun12 1
x_Mtr4_Rps1a 0
x_Rps1a_Fun12 1
x_Mtr4_Rps23a 0
x_Rps23a_Fun12 0
x_Mtr4_Rps23b 0
x_Rps23b_Fun12 0
x_Mtr4_Rps24a 0
x_Rps24a_Fun12 1
x_Mtr4_Rps24b 0
x_Rps24b_Fun12 0
x_Mtr4_Rps27a 0
x_Rps27a_Fun12 0
x_Mtr4_Rps28a 0
x_Rps28a_Fun12 0
x_Mtr4_Rps5 0
x_Rps5_Fun12 0
x_Mtr4_Rps6a 0
x_Rps6a_Fun12 0
x_Mtr4_Rps6b 0
x_Rps6b_Fun12 1
x_Mtr4_Rps7a 0
x_Rps7a_Fun12 1
x_Mtr4_Rps8a 1
x_Rps8a_Fun12 1
x_Mtr4_Rps8b 0
x_Rps8b_Fun12 0
x_Mtr4_Rps9a 0
x_Rps9a_Fun12 0
x_Air2_Npl3 0
x_Npl3_Rpo21 0
x_Rpo21_Rtf1 1
x_Art5_Rsp5 1
x_Rsp5_Rpo21 0
x_Rsp5_Rps31 1
x_Rps31_Ede1 0
x_Rps31_Fun12 0
x_Rsp5_Ubi4 0
x_Ubi4_Duf1 1
x_Ubi4_Ede1 0
x_Ask10_Fps1 1
x_Fps1_Hog1 1
x_Hog1_Sko1 1
x_Fps1_Slt2 0
x_Slt2_Sko1 0
x_Bdp1_Rpb10 0
x_Rpb10_Cdc73 0
x_Cdc73_Rtf1 0
x_Rpb10_Rpb2 0
x_Rpb2_Rtf1 0
x_Rpb10_Rpb3 0
x_Rpb3_Rtf1 0
x_Rpb10_Rpo21 0
x_Rpb10_Spt4 0
x_Spt4_Rtf1 0
x_Rpb10_Spt5 0
x_Spt5_Rtf1 1
x_Bdp1_Rpb5 0
x_Rpb5_Cdc73 0
x_Rpb5_Leo1 0
x_Leo1_Rtf1 0
x_Rpb5_Rpb2 0
x_Rpb5_Rpb3 0
x_Rpb5_Rpo21 0
x_Rpb5_Spt4 0
x_Rpb5_Spt5 0
x_Rpb5_Spt6 0
x_Spt6_Rtf1 0
x_Bdp1_Rpb8 0
x_Rpb8_Rpb2 0
x_Rpb8_Rpb3 0
x_Rpb8_Rpo21 0
x_Rpb8_Spt4 0
x_Rpb8_Spt5 0
x_Bdp1_Rpc10 0
x_Rpc10_Cdc73 0
x_Rpc10_Rpb2 0
x_Rpc10_Rpb3 0
x_Rpc10_Rpo21 0
x_Rpc10_Spt4 0
x_Rpc10_Spt5 0
x_Bdp1_Rpo26 1
x_Rpo26_Cdc73 0
x_Rpo26_Paf1 0
x_Paf1_Rtf1 0
x_Rpo26_Rpb2 0
x_Rpo26_Rpb3 0
x_Rpo26_Rpo21 1
x_Rpo26_Spt4 0
x_Rpo26_Spt5 1
x_Bdp1_Rpo31 0
x_Rpo31_Rpb3 0
x_Rpo31_Rpo21 0
x_Bdp1_Spt15 0
x_Spt15_Rpb2 0
x_Spt15_Rpb3 0
x_Spt15_Rpo21 0
x_Chc1_Apl1 1
x_Apl1_Apl3 1
x_Apl3_Ede1 1
x_Chc1_Apl2 1
x_Apl2_Apl3 1
x_Chc1_Ent1 0
x_Ent1_Apl3 0
x_Ent1_Ede1 1
x_Ent1_Ubi4 0
x_Chc1_Ent2 1
x_Ent2_Apl3 0
x_Ent2_Ede1 1
x_Ent2_Ubi4 0
x_Chc1_Las17 0
x_Las17_Act1 1
x_Act1_Cyr1 1
x_Chc1_Sla2 1
x_Sla2_Act1 0
x_Sla2_Ent1 1
x_Chc1_Swa2 1
x_Swa2_Ubi4 1
x_Chc1_Vps27 1
x_Vps27_Ede1 0
x_Vps27_Rps31 0
x_Vps27_Ubi4 1
x_Ecm21_Rsp5 1
x_Ldb19_Rsp5 1
x_Msg5_Fus3 0
x_Fus3_Gpa1 0
x_Gpa1_Cyr1 0
x_Fus3_Kss1 0
x_Kss1_Sko1 0
x_Fus3_Sko1 0
x_Msg5_Kss1 0
x_Kss1_Fus3 0
x_Kss1_Hog1 0
x_Msg5_Slt2 1
x_Slt2_Cdc28 1
x_Cdc28_Swe1 1
x_Slt2_Hog1 0
x_Sec16_Apl3 1
x_Apl3_Ent1 0
x_Apl3_Ent2 0
x_Sec16_Apm4 0
x_Apm4_Apl3 0
x_Sla1_Abp1 1
x_Abp1_Act1 1
x_Abp1_Srv2 0
x_Srv2_Cyr1 0
x_Sla1_Las17 1
x_Sla1_Rps31 0
x_Rps31_Asc1 1
x_Asc1_Fun12 1
x_Rps31_Dom34 1
x_Dom34_Sup35 1
x_Rps31_Gcd11 0
x_Gcd11_Fun12 0
x_Rps31_Nip1 0
x_Nip1_Fun12 0
x_Rps31_Prt1 1
x_Prt1_Fun12 1
x_Rps31_Rpg1 1
x_Rpg1_Fun12 1
x_Rps31_Rpl10 1
x_Rpl10_Fun12 1
x_Rps31_Rpl17a 1
x_Rpl17a_Fun12 1
x_Rps31_Rpl17b 0
x_Rpl17b_Fun12 0
x_Rps31_Rpl19b 1
x_Rpl19b_Fun12 1
x_Rps31_Rpl25 1
x_Rpl25_Fun12 1
x_Rps31_Rpl28 0
x_Rpl28_Fun12 0
x_Rps31_Rpl2a 0
x_Rpl2a_Fun12 0
x_Rps31_Rpl2b 0
x_Rpl2b_Fun12 0
x_Rps31_Rpl3 1
x_Rpl3_Fun12 1
x_Rps31_Rpl30 1
x_Rpl30_Fun12 1
x_Rps31_Rpl32 1
x_Rpl32_Fun12 1
x_Rps31_Rpl34a 0
x_Rpl34a_Fun12 0
x_Rps31_Rpl35a 0
x_Rpl35a_Fun12 0
x_Rps31_Rpl35b 1
x_Rpl35b_Fun12 1
x_Rps31_Rpl37a 0
x_Rpl37a_Fun12 0
x_Rps31_Rpl38 0
x_Rpl38_Fun12 0
x_Rps31_Rpl5 1
x_Rpl5_Fun12 1
x_Rps31_Rpl7a 1
x_Rpl7a_Fun12 1
x_Rps31_Rps0a 0
x_Rps0a_Fun12 0
x_Rps31_Rps0b 0
x_Rps0b_Fun12 0
x_Rps31_Rps10a 0
x_Rps10a_Fun12 0
x_Rps31_Rps11a 0
x_Rps31_Rps11b 1
x_Rps31_Rps12 0
x_Rps12_Fun12 0
x_Rps31_Rps13 0
x_Rps31_Rps14a 0
x_Rps31_Rps14b 1
x_Rps14b_Fun12 1
x_Rps31_Rps15 0
x_Rps15_Fun12 0
x_Rps31_Rps16a 0
x_Rps31_Rps16b 1
x_Rps31_Rps17a 0
x_Rps17a_Fun12 0
x_Rps31_Rps17b 1
x_Rps17b_Fun12 1
x_Rps31_Rps18a 1
x_Rps18a_Fun12 1
x_Rps31_Rps18b 0
x_Rps18b_Fun12 0
x_Rps31_Rps19a 0
x_Rps19a_Fun12 0
x_Rps31_Rps1a 1
x_Rps31_Rps1b 1
x_Rps1b_Fun12 1
x_Rps31_Rps2 0
x_Rps2_Fun12 0
x_Rps31_Rps20 0
x_Rps20_Fun12 0
x_Rps31_Rps22a 0
x_Rps22a_Fun12 0
x_Rps31_Rps23a 0
x_Rps31_Rps23b 0
x_Rps31_Rps24a 1
x_Rps31_Rps24b 0
x_Rps31_Rps25a 0
x_Rps25a_Fun12 0
x_Rps31_Rps26a 0
x_Rps26a_Fun12 0
x_Rps31_Rps26b 1
x_Rps26b_Fun12 1
x_Rps31_Rps27a 0
x_Rps31_Rps28a 0
x_Rps31_Rps28b 0
x_Rps28b_Fun12 0
x_Rps31_Rps29a 1
x_Rps29a_Fun12 1
x_Rps31_Rps3 1
x_Rps3_Fun12 1
x_Rps31_Rps30a 0
x_Rps30a_Fun12 0
x_Rps31_Rps30b 0
x_Rps30b_Fun12 0
x_Rps31_Rps5 0
x_Rps31_Rps6a 0
x_Rps31_Rps6b 1
x_Rps31_Rps7a 1
x_Rps31_Rps8a 0
x_Rps31_Rps8b 0
x_Rps31_Rps9a 0
x_Rps31_Rps9b 1
x_Rps9b_Fun12 1
x_Rps31_Sui1 1
x_Sui1_Fun12 1
x_Rps31_Tif11 0
x_Tif11_Fun12 0
x_Rps31_Tif35 1
x_Tif35_Fun12 1
x_Rps31_Ubi4 0
x_Rps31_Tif5 0
x_Tif5_Fun12 0
x_Rps31_Vps27 0
x_Sla1_Rvs167 0
x_Rvs167_Act1 0
x_Sla1_Sla2 0
x_Sla1_Ubi4 0
x_Ubi4_Asc1 0
x_Ubi4_Ent1 0
x_Ubi4_Ent2 0
x_Ubi4_Rpl10 0
x_Ubi4_Rpl17a 0
x_Ubi4_Rpl17b 0
x_Ubi4_Rpl19b 0
x_Ubi4_Rpl25 0
x_Ubi4_Rpl28 0
x_Ubi4_Rpl2a 0
x_Ubi4_Rpl2b 0
x_Ubi4_Rpl3 0
x_Ubi4_Rpl30 0
x_Ubi4_Rpl32 0
x_Ubi4_Rpl34a 0
x_Ubi4_Rpl35a 0
x_Ubi4_Rpl35b 0
x_Ubi4_Rpl38 0
x_Ubi4_Rpl5 0
x_Ubi4_Rps0a 0
x_Ubi4_Rps0b 0
x_Ubi4_Rps10a 0
x_Ubi4_Rps11a 0
x_Ubi4_Rps11b 0
x_Ubi4_Rps12 0
x_Ubi4_Rps13 0
x_Ubi4_Rps14a 0
x_Ubi4_Rps14b 0
x_Ubi4_Rps15 0
x_Ubi4_Rps16a 0
x_Ubi4_Rps16b 0
x_Ubi4_Rps17a 0
x_Ubi4_Rps17b 0
x_Ubi4_Rps18b 0
x_Ubi4_Rps19a 0
x_Ubi4_Rps1a 0
x_Ubi4_Rps1b 0
x_Ubi4_Rps2 0
x_Ubi4_Rps20 0
x_Ubi4_Rps23a 0
x_Ubi4_Rps23b 0
x_Ubi4_Rps24a 0
x_Ubi4_Rps24b 0
x_Ubi4_Rps25a 0
x_Ubi4_Rps26a 0
x_Ubi4_Rps26b 0
x_Ubi4_Rps27a 0
x_Ubi4_Rps28a 0
x_Ubi4_Rps28b 0
x_Ubi4_Rps29a 0
x_Ubi4_Rps3 0
x_Ubi4_Rps31 0
x_Ubi4_Rps5 0
x_Ubi4_Rps6b 0
x_Ubi4_Rps7a 0
x_Ubi4_Rps8a 0
x_Ubi4_Rps8b 0
x_Ubi4_Rps9a 0
x_Ubi4_Rps9b 0
x_Ubi4_Vps27 0
x_Sla1_Vrp1 1
x_Vrp1_Act1 1
x_Ssk2_Pbs2 1
x_Pbs2_Fus3 0
x_Pbs2_Hog1 0
x_Pbs2_Kss1 0
x_Pbs2_Mih1 1
x_Mih1_Swe1 1
x_Bud4_Bud3 1
x_Bud3_Clb2 1
x_Clb2_Swe1 1
x_Igo1_Cdc55 1
x_Cdc55_Swe1 0
x_Cdc55_Igo2 1
x_Syp1_Ede1 1
x_Ypl247c_Yak1 1
x_Yak1_Rim15 1
x_Rim15_Msn2 1
x_Rim15_Sch9 1
x_Yak1_Tpk1 0
x_Tpk1_Sch9 0
y_Air2 1
y_Mtr4 1
y_Rps11a 0
y_Rps11b 1
y_Rps13 0
y_Rps14a 0
y_Rps16a 0
y_Rps16b 1
y_Rps1a 1
y_Rps23a 0
y_Rps23b 0
y_Rps24a 1
y_Rps24b 0
y_Rps27a 0
y_Rps28a 0
y_Rps5 0
y_Rps6a 0
y_Rps6b 1
y_Rps7a 1
y_Rps8a 1
y_Rps8b 0
y_Rps9a 0
y_Npl3 0
y_Rpo21 1
y_Art5 1
y_Rsp5 1
y_Rps31 1
y_Ubi4 1
y_Ask10 1
y_Fps1 1
y_Hog1 1
y_Slt2 1
y_Bdp1 1
y_Rpb10 0
y_Cdc73 0
y_Rpb2 0
y_Rpb3 0
y_Spt4 0
y_Spt5 1
y_Rpb5 0
y_Leo1 0
y_Spt6 0
y_Rpb8 0
y_Rpc10 0
y_Rpo26 1
y_Paf1 0
y_Rpo31 0
y_Spt15 0
y_Chc1 1
y_Apl1 1
y_Apl3 1
y_Apl2 1
y_Ent1 1
y_Ent2 1
y_Las17 1
y_Act1 1
y_Sla2 1
y_Swa2 1
y_Vps27 1
y_Ecm21 1
y_Ldb19 1
y_Msg5 1
y_Fus3 0
y_Gpa1 0
y_Kss1 0
y_Cdc28 1
y_Sec16 1
y_Apm4 0
y_Sla1 1
y_Abp1 1
y_Srv2 0
y_Asc1 1
y_Dom34 1
y_Gcd11 0
y_Nip1 0
y_Prt1 1
y_Rpg1 1
y_Rpl10 1
y_Rpl17a 1
y_Rpl17b 0
y_Rpl19b 1
y_Rpl25 1
y_Rpl28 0
y_Rpl2a 0
y_Rpl2b 0
y_Rpl3 1
y_Rpl30 1
y_Rpl32 1
y_Rpl34a 0
y_Rpl35a 0
y_Rpl35b 1
y_Rpl37a 0
y_Rpl38 0
y_Rpl5 1
y_Rpl7a 1
y_Rps0a 0
y_Rps0b 0
y_Rps10a 0
y_Rps12 0
y_Rps14b 1
y_Rps15 0
y_Rps17a 0
y_Rps17b 1
y_Rps18a 1
y_Rps18b 0
y_Rps19a 0
y_Rps1b 1
y_Rps2 0
y_Rps20 0
y_Rps22a 0
y_Rps25a 0
y_Rps26a 0
y_Rps26b 1
y_Rps28b 0
y_Rps29a 1
y_Rps3 1
y_Rps30a 0
y_Rps30b 0
y_Rps9b 1
y_Sui1 1
y_Tif11 0
y_Tif35 1
y_Tif5 0
y_Rvs167 0
y_Vrp1 1
y_Ssk2 1
y_Pbs2 1
y_Mih1 1
y_Bud4 1
y_Bud3 1
y_Clb2 1
y_Igo1 1
y_Cdc55 1
y_Syp1 1
y_Ypl247c 1
y_Yak1 1
y_Rim15 1
y_Tpk1 0
y_Fun12 1
y_Rtf1 1
y_Ede1 1
y_Duf1 1
y_Sko1 1
y_Cyr1 1
y_Swe1 1
y_Sup35 1
y_Igo2 1
y_Msn2 1
y_Sch9 1
